
Gurobi 9.1.2 (win64) logging started Tue Dec  7 11:42:46 2021

Gurobi Optimizer version 9.1.2 build v9.1.2rc0 (win64)
Thread count: 8 physical cores, 8 logical processors, using up to 8 threads
Optimize a model with 1 rows, 34 columns and 33 nonzeros
Model fingerprint: 0xf6b89f6f
Variable types: 1 continuous, 33 integer (33 binary)
Coefficient statistics:
  Matrix range     [1e+00, 1e+01]
  Objective range  [1e+00, 1e+00]
  Bounds range     [2e+00, 2e+00]
  RHS range        [1e+01, 1e+01]
Presolve time: 0.00s
Presolved: 1 rows, 34 columns, 33 nonzeros
Variable types: 1 continuous, 33 integer (33 binary)

Root simplex log...

Iteration    Objective       Primal Inf.    Dual Inf.      Time
       0   -1.6670769e+00   4.816742e-01   0.000000e+00     15s
       5   -1.5391634e+00   0.000000e+00   0.000000e+00     15s

Root relaxation: objective -1.539163e+00, 5 iterations, 0.00 seconds

    Nodes    |    Current Node    |     Objective Bounds      |     Work
 Expl Unexpl |  Obj  Depth IntInf | Incumbent    BestBd   Gap | It/Node Time

     0     0   -1.53916    0    1          -   -1.53916      -     -   14s
H    0     0                       0.9591351   -1.53916   260%     -   15s
H    0     0                       0.9559725   -1.53916   261%     -   16s
     0     0   -0.79756    0    4    0.95597   -0.79756   183%     -   16s
H    0     0                       0.9409356   -0.79756   185%     -   16s
H    0     0                       0.9274226   -0.79756   186%     -   16s
     0     0   -0.37390    0    6    0.92742   -0.37390   140%     -   16s
     0     0   -0.32870    0   10    0.92742   -0.32870   135%     -   16s
     0     0   -0.29248    0    9    0.92742   -0.29248   132%     -   17s
     0     0   -0.29062    0    9    0.92742   -0.29062   131%     -   17s
     0     0   -0.26286    0    9    0.92742   -0.26286   128%     -   17s
     0     0   -0.26133    0    9    0.92742   -0.26133   128%     -   17s
     0     0   -0.20281    0    8    0.92742   -0.20281   122%     -   17s
     0     0   -0.20064    0    8    0.92742   -0.20064   122%     -   17s
     0     0   -0.20064    0    9    0.92742   -0.20064   122%     -   17s
     0     0   -0.19609    0    8    0.92742   -0.19609   121%     -   17s
     0     0   -0.19609    0    8    0.92742   -0.19609   121%     -   17s
     0     2   -0.19609    0    8    0.92742   -0.19609   121%     -   18s

Cutting planes:
  Cover: 1
  MIR: 8
  Lazy constraints: 37

Explored 50 nodes (262 simplex iterations) in 18.57 seconds
Thread count was 8 (of 8 available processors)

Solution count 4: 0.927423 0.940936 0.955972 0.959135 

Optimal solution found (tolerance 1.00e-04)
Best objective 9.274226388304e-01, best bound 9.274226388304e-01, gap 0.0000%

User-callback calls 303, time in user-callback 22.31 sec
